DIMACS2
40 123 263 126 199 293 317 99 241 76 161 51 178 3 48 55 30 219 300 229 270 298 280 236 113 224 226 303 306 122 265 157 166 81 271 114 302 281 38 21 101
p edge 320 320
e 0 172 1.0
e 1 77 7.0
e 2 0 1.0
e 3 273 12.0
e 4 146 3.0
e 5 100 3.0
e 6 140 1.0
e 7 21 21.0
e 8 98 2.0
e 9 106 2.0
e 10 305 1.0
e 11 261 1.0
e 12 27 5.0
e 13 73 1.0
e 14 197 1.0
e 15 151 3.0
e 16 234 3.0
e 17 174 1.0
e 18 99 21.0
e 19 92 1.0
e 20 249 1.0
e 21 295 49.0
e 22 208 1.0
e 23 235 1.0
e 24 216 4.0
e 25 50 1.0
e 25 0 1.0
e 26 155 1.0
e 27 212 2.0
e 28 115 10.0
e 29 139 9.0
e 30 8 49.0
e 31 281 35.0
e 32 303 2.0
e 33 91 1.0
e 34 315 3.0
e 35 245 1.0
e 36 306 46.0
e 37 40 1.0
e 38 118 12.0
e 39 98 3.0
e 40 190 1.0
e 41 201 1.0
e 42 239 1.0
e 43 62 2.0
e 44 302 8.0
e 45 227 1.0
e 46 201 1.0
e 47 109 3.0
e 48 12 47.0
e 49 41 1.0
e 50 285 1.0
e 51 303 26.0
e 52 59 4.0
e 53 306 47.0
e 54 284 1.0
e 55 177 25.0
e 56 201 1.0
e 57 64 1.0
e 58 142 1.0
e 59 121 4.0
e 60 219 34.0
e 61 59 5.0
e 62 99 45.0
e 63 287 1.0
e 64 180 1.0
e 65 48 7.0
e 66 249 1.0
e 67 237 1.0
e 68 182 1.0
e 69 208 2.0
e 70 47 11.0
e 71 249 5.0
e 72 100 1.0
e 73 307 3.0
e 74 42 1.0
e 75 133 1.0
e 76 47 5.0
e 77 224 6.0
e 78 72 1.0
e 79 317 22.0
e 80 313 6.0
e 81 317 4.0
e 82 247 1.0
e 83 12 2.0
e 84 266 2.0
e 85 242 1.0
e 86 62 8.0
e 87 293 26.0
e 88 26 1.0
e 89 257 1.0
e 90 124 1.0
e 91 114 19.0
e 92 210 1.0
e 93 302 1.0
e 94 9 1.0
e 95 235 2.0
e 96 149 1.0
e 97 158 1.0
e 98 276 4.0
e 99 268 40.0
e 100 165 3.0
e 101 305 44.0
e 102 132 3.0
e 103 136 1.0
e 104 146 1.0
e 105 116 1.0
e 106 221 1.0
e 107 53 1.0
e 108 46 1.0
e 109 119 5.0
e 110 249 1.0
e 111 96 1.0
e 112 10 1.0
e 113 33 36.0
e 114 307 1.0
e 115 280 3.0
e 116 287 1.0
e 117 132 2.0
e 118 295 2.0
e 119 257 5.0
e 120 244 1.0
e 121 278 7.0
e 122 199 3.0
e 123 283 17.0
e 124 146 1.0
e 125 308 1.0
e 126 217 21.0
e 127 24 1.0
e 128 244 1.0
e 129 95 12.0
e 130 238 1.0
e 131 159 1.0
e 132 125 1.0
e 133 301 4.0
e 134 184 1.0
e 135 154 1.0
e 136 150 1.0
e 137 192 1.0
e 138 164 1.0
e 139 20 1.0
e 140 112 1.0
e 141 187 1.0
e 142 183 1.0
e 143 32 1.0
e 144 91 1.0
e 145 167 1.0
e 146 100 3.0
e 147 149 1.0
e 148 231 5.0
e 149 128 1.0
e 150 88 1.0
e 151 115 3.0
e 152 63 1.0
e 153 277 2.0
e 154 189 2.0
e 155 172 1.0
e 156 92 1.0
e 157 4 40.0
e 158 194 1.0
e 159 286 1.0
e 160 247 1.0
e 161 316 18.0
e 162 238 1.0
e 163 4 5.0
e 164 242 1.0
e 165 12 1.0
e 166 129 42.0
e 167 202 1.0
e 168 38 35.0
e 169 131 1.0
e 170 166 13.0
e 171 146 1.0
e 172 213 1.0
e 173 216 1.0
e 174 256 1.0
e 175 119 7.0
e 176 148 4.0
e 177 217 1.0
e 178 121 28.0
e 179 280 25.0
e 180 293 31.0
e 181 21 18.0
e 182 187 1.0
e 183 213 1.0
e 184 276 1.0
e 185 286 1.0
e 186 217 1.0
e 187 315 1.0
e 188 291 1.0
e 189 312 1.0
e 190 228 1.0
e 191 41 1.0
e 192 285 1.0
e 193 144 1.0
e 194 23 1.0
e 195 177 1.0
e 196 36 1.0
e 197 237 1.0
e 198 260 5.0
e 199 16 39.0
e 200 44 1.0
e 201 309 1.0
e 202 45 1.0
e 203 223 2.0
e 204 148 1.0
e 205 26 1.0
e 206 61 1.0
e 207 204 18.0
e 208 151 1.0
e 209 112 1.0
e 210 38 37.0
e 211 78 1.0
e 212 213 1.0
e 213 198 4.0
e 214 311 1.0
e 215 231 1.0
e 216 138 2.0
e 217 127 1.0
e 218 290 1.0
e 219 24 19.0
e 220 295 1.0
e 221 173 1.0
e 222 246 1.0
e 223 136 1.0
e 224 100 28.0
e 225 302 2.0
e 226 186 1.0
e 227 2 1.0
e 228 120 1.0
e 229 34 6.0
e 230 182 1.0
e 231 284 2.0
e 232 252 1.0
e 233 62 10.0
e 234 60 5.0
e 235 266 1.0
e 236 305 20.0
e 237 140 1.0
e 238 120 1.0
e 239 10 1.0
e 240 102 2.0
e 241 71 3.0
e 242 61 1.0
e 243 9 1.0
e 244 72 1.0
e 245 193 3.0
e 246 187 1.0
e 247 120 1.0
e 248 269 1.0
e 249 34 3.0
e 250 239 1.0
e 251 244 1.0
e 252 315 1.0
e 253 199 34.0
e 254 304 4.0
e 255 61 1.0
e 256 308 1.0
e 257 203 5.0
e 258 135 1.0
e 259 8 6.0
e 260 55 39.0
e 261 126 45.0
e 262 245 6.0
e 263 210 20.0
e 264 301 5.0
e 265 288 38.0
e 266 121 4.0
e 267 271 45.0
e 268 243 10.0
e 269 186 1.0
e 270 262 10.0
e 271 200 4.0
e 272 307 6.0
e 273 279 11.0
e 274 240 1.0
e 275 64 1.0
e 276 221 1.0
e 277 151 1.0
e 278 143 2.0
e 279 244 1.0
e 280 29 35.0
e 281 207 29.0
e 282 275 1.0
e 283 199 34.0
e 284 142 1.0
e 286 200 1.0
e 287 133 2.0
e 288 225 2.0
e 289 197 1.0
e 290 250 1.0
e 291 294 1.0
e 292 287 1.0
e 293 301 40.0
e 294 306 32.0
e 295 114 14.0
e 296 3 43.0
e 297 282 1.0
e 298 32 44.0
e 299 210 1.0
e 300 11 4.0
e 301 106 5.0
e 302 51 42.0
e 303 236 36.0
e 304 77 9.0
e 305 311 1.0
e 306 180 15.0
e 307 132 2.0
e 308 180 1.0
e 309 210 1.0
e 310 98 4.0
e 311 147 1.0
e 312 163 1.0
e 313 129 1.0
e 314 189 2.0
e 315 87 2.0
e 316 179 1.0
e 317 287 12.0
e 318 230 1.0
e 319 267 10.0
